c p0@v7 --> 49
c p0@v5 --> 47
c p0@v2 --> 44
c p0@v1 --> 43
c p1@v3 --> 40
c p0@v9 --> 51
c p1@v2 --> 39
c p1@v1 --> 38
c p0@v0 --> 42
c p5@v8 --> 35
c p5@v7 --> 34
c p5@v5 --> 32
c p5@v4 --> 31
c p5@v3 --> 30
c p4@v5 --> 12
c p0@v8 --> 50
c p0@v3 --> 45
c p4@v2 --> 9
c p0@v6 --> 48
c p4@v6 --> 13
c p5@v0 --> 27
c p5@v2 --> 29
c p1@v0 --> 37
c p4@v1 --> 8
c p0@v10 --> 52
c p4@v7 --> 14
c @top --> 53
c p4@v0 --> 7
c p1@v4 --> 41
c p4@v8 --> 15
c p7@v4 --> 6
c p7@v1 --> 3
c p5@v9 --> 36
c p2@v0 --> 18
c p7@v3 --> 5
c p7@v2 --> 4
c p8 --> 1
c p3 --> 17
c p4@v3 --> 10
c p6@v1 --> 23
c p2@v1 --> 19
c p7@v0 --> 2
c p2@v2 --> 20
c p2@v3 --> 21
c p5@v6 --> 33
c p6@v0 --> 22
c p4@v4 --> 11
c p6@v2 --> 24
c p6@v3 --> 25
c p0@v4 --> 46
c p4@v9 --> 16
c p6@v4 --> 26
c p5@v1 --> 28
p cnf 53 209
-5 -34 0
-5 -33 0
-25 -15 0
-24 -10 0
-5 -32 0
-5 -31 0
-24 -8 0
-26 -17 0
-24 -7 0
-25 -16 0
-6 -1 0
-9 -24 0
-25 -12 0
-25 -11 0
-25 -14 0
-24 -15 0
-5 -35 0
-25 -13 0
-16 -24 0
-36 -5 0
2 3 4 5 6 0
-2 -3 0
-2 -4 0
-2 -5 0
-2 -6 0
-3 -4 0
-3 -5 0
-3 -6 0
-4 -5 0
-4 -6 0
-5 -6 0
7 8 9 10 11 12 13 14 15 16 0
-7 -8 0
-7 -9 0
-7 -10 0
-7 -11 0
-7 -12 0
-7 -13 0
-7 -14 0
-7 -15 0
-7 -16 0
-8 -9 0
-8 -10 0
-8 -11 0
-8 -12 0
-8 -13 0
-8 -14 0
-8 -15 0
-8 -16 0
-9 -10 0
-9 -11 0
-9 -12 0
-9 -13 0
-9 -14 0
-9 -15 0
-9 -16 0
-10 -11 0
-10 -12 0
-10 -13 0
-10 -14 0
-10 -15 0
-10 -16 0
-11 -12 0
-11 -13 0
-11 -14 0
-11 -15 0
-11 -16 0
-12 -13 0
-12 -14 0
-12 -15 0
-12 -16 0
-13 -14 0
-13 -15 0
-13 -16 0
-14 -15 0
-14 -16 0
-15 -16 0
18 19 20 21 0
-18 -19 0
-18 -20 0
-18 -21 0
-19 -20 0
-19 -21 0
-20 -21 0
22 23 24 25 26 0
-22 -23 0
-22 -24 0
-22 -25 0
-22 -26 0
-23 -24 0
-23 -25 0
-23 -26 0
-24 -25 0
-24 -26 0
-25 -26 0
27 28 29 30 31 32 33 34 35 36 0
-27 -28 0
-27 -29 0
-27 -30 0
-27 -31 0
-27 -32 0
-27 -33 0
-27 -34 0
-27 -35 0
-27 -36 0
-28 -29 0
-28 -30 0
-28 -31 0
-28 -32 0
-28 -33 0
-28 -34 0
-28 -35 0
-28 -36 0
-29 -30 0
-29 -31 0
-29 -32 0
-29 -33 0
-29 -34 0
-29 -35 0
-29 -36 0
-30 -31 0
-30 -32 0
-30 -33 0
-30 -34 0
-30 -35 0
-30 -36 0
-31 -32 0
-31 -33 0
-31 -34 0
-31 -35 0
-31 -36 0
-32 -33 0
-32 -34 0
-32 -35 0
-32 -36 0
-33 -34 0
-33 -35 0
-33 -36 0
-34 -35 0
-34 -36 0
-35 -36 0
37 38 39 40 41 0
-37 -38 0
-37 -39 0
-37 -40 0
-37 -41 0
-38 -39 0
-38 -40 0
-38 -41 0
-39 -40 0
-39 -41 0
-40 -41 0
42 43 44 45 46 47 48 49 50 51 52 0
-42 -43 0
-42 -44 0
-42 -45 0
-42 -46 0
-42 -47 0
-42 -48 0
-42 -49 0
-42 -50 0
-42 -51 0
-42 -52 0
-43 -44 0
-43 -45 0
-43 -46 0
-43 -47 0
-43 -48 0
-43 -49 0
-43 -50 0
-43 -51 0
-43 -52 0
-44 -45 0
-44 -46 0
-44 -47 0
-44 -48 0
-44 -49 0
-44 -50 0
-44 -51 0
-44 -52 0
-45 -46 0
-45 -47 0
-45 -48 0
-45 -49 0
-45 -50 0
-45 -51 0
-45 -52 0
-46 -47 0
-46 -48 0
-46 -49 0
-46 -50 0
-46 -51 0
-46 -52 0
-47 -48 0
-47 -49 0
-47 -50 0
-47 -51 0
-47 -52 0
-48 -49 0
-48 -50 0
-48 -51 0
-48 -52 0
-49 -50 0
-49 -51 0
-49 -52 0
-50 -51 0
-50 -52 0
-51 -52 0
53 -53 0
